
Gurobi 8.1.1 (win64) logging started 11/24/19 13:13:10

Changed value of parameter LogFile to logs/miss/ip/miss-07-30-0.log
   Prev: gurobi.log  Default: 
Changed value of parameter LogToConsole to 0
   Prev: 1  Min: 0  Max: 1  Default: 1
Changed value of parameter TimeLimit to 3600.0
   Prev: 1e+100  Min: 0.0  Max: 1e+100  Default: 1e+100
Optimize a model with 3178 rows, 1500 columns and 12103 nonzeros
Variable types: 0 continuous, 1500 integer (1485 binary)
Coefficient statistics:
  Matrix range     [1e+00, 6e+02]
  Objective range  [1e+00, 1e+00]
  Bounds range     [1e+00, 1e+00]
  RHS range        [1e+00, 7e+02]
Presolve removed 3 rows and 3 columns
Presolve time: 0.07s
Presolved: 3175 rows, 1497 columns, 12094 nonzeros
Variable types: 0 continuous, 1497 integer (1482 binary)

Root relaxation: objective 4.294118e+00, 866 iterations, 0.05 seconds

    Nodes    |    Current Node    |     Objective Bounds      |     Work
 Expl Unexpl |  Obj  Depth IntInf | Incumbent    BestBd   Gap | It/Node Time

     0     0    4.29412    0  138          -    4.29412      -     -    0s
     0     0    6.00000    0   36          -    6.00000      -     -    0s
     0     0    6.00000    0   39          -    6.00000      -     -    0s
     0     0    6.00000    0   20          -    6.00000      -     -    0s
     0     0    6.00000    0   20          -    6.00000      -     -    0s
     0     0    6.00000    0   44          -    6.00000      -     -    0s
     0     0    6.00000    0   44          -    6.00000      -     -    0s
     0     0    6.00000    0   25          -    6.00000      -     -    0s
     0     0    6.00000    0   25          -    6.00000      -     -    0s
H    0     0                      15.0000000    6.00000  60.0%     -    1s
H    0     0                      14.0000000    6.00000  57.1%     -    1s
H    0     0                      13.0000000    6.00000  53.8%     -    1s
H    0     0                      12.0000000    6.00000  50.0%     -    1s
     0     0    6.00000    0   12   12.00000    6.00000  50.0%     -    1s
     0     0    6.00000    0   25   12.00000    6.00000  50.0%     -    1s
     0     0    6.00000    0   16   12.00000    6.00000  50.0%     -    1s
     0     0    6.00000    0   18   12.00000    6.00000  50.0%     -    1s
     0     0    6.00000    0   18   12.00000    6.00000  50.0%     -    1s
     0     0    6.00000    0   12   12.00000    6.00000  50.0%     -    2s
     0     0    6.00000    0   19   12.00000    6.00000  50.0%     -    2s
     0     0    6.00000    0   19   12.00000    6.00000  50.0%     -    2s
H    0     0                      10.0000000    6.00000  40.0%     -    2s
     0     0    6.00000    0   14   10.00000    6.00000  40.0%     -    2s
     0     0    6.00000    0   39   10.00000    6.00000  40.0%     -    2s
     0     0    6.00000    0   36   10.00000    6.00000  40.0%     -    2s
     0     0    6.00000    0   12   10.00000    6.00000  40.0%     -    2s
     0     0    6.00000    0   13   10.00000    6.00000  40.0%     -    2s
     0     0    6.00000    0   19   10.00000    6.00000  40.0%     -    2s
     0     0    6.00000    0   13   10.00000    6.00000  40.0%     -    2s
     0     0    6.00000    0   13   10.00000    6.00000  40.0%     -    2s
     0     0    6.00000    0   16   10.00000    6.00000  40.0%     -    2s
     0     0    6.00000    0   20   10.00000    6.00000  40.0%     -    2s
     0     0    6.00000    0   12   10.00000    6.00000  40.0%     -    2s
     0     2    6.00000    0   10   10.00000    6.00000  40.0%     -    2s
H  741   378                       9.0000000    6.00000  33.3%  28.9    3s
   776   402    8.00000  167   13    9.00000    6.00000  33.3%  34.8    5s
H 5723  1880                       8.0000000    6.00000  25.0%  20.8    6s
H 8868   725                       7.0000000    6.00000  14.3%  18.6    9s
  9210   746    6.00000   46   32    7.00000    6.00000  14.3%  18.7   10s
 21107  1688 infeasible   84         7.00000    6.00000  14.3%  14.5   15s
 39267  1506 infeasible   93         7.00000    6.00000  14.3%  13.2   20s
 58133  1570    6.00000   80   27    7.00000    6.00000  14.3%  12.9   25s
 72807  2337 infeasible   92         7.00000    6.00000  14.3%  13.5   30s
 89375  5719 infeasible   94         7.00000    6.00000  14.3%  13.7   35s
 107980  6532 infeasible   94         7.00000    6.00000  14.3%  13.5   40s
 125424  6239 infeasible   87         7.00000    6.00000  14.3%  13.4   45s
 141020  6789    6.00000   97   18    7.00000    6.00000  14.3%  13.6   50s
 157823  6836    6.00000  110   29    7.00000    6.00000  14.3%  13.6   55s
 173762  6785 infeasible  124         7.00000    6.00000  14.3%  13.7   60s
 190068  7617 infeasible   64         7.00000    6.00000  14.3%  13.7   65s
 206325  7394 infeasible   85         7.00000    6.00000  14.3%  13.7   70s
 222611  7865 infeasible   80         7.00000    6.00000  14.3%  13.8   75s
 241372  8391 infeasible   70         7.00000    6.00000  14.3%  13.7   80s
 259842  8321 infeasible   74         7.00000    6.00000  14.3%  13.7   85s
 277829  7943 infeasible  112         7.00000    6.00000  14.3%  13.6   90s
 292819  7715 infeasible   95         7.00000    6.00000  14.3%  13.7   95s
 310685  7076    6.00000   87   34    7.00000    6.00000  14.3%  13.7  100s
 326606  6399 infeasible   85         7.00000    6.00000  14.3%  13.7  105s
 342134  5694 infeasible   90         7.00000    6.00000  14.3%  13.7  110s
 358154  5189 infeasible   91         7.00000    6.00000  14.3%  13.8  115s
 375098  4392 infeasible  121         7.00000    6.00000  14.3%  13.8  120s
 391024  3590 infeasible  101         7.00000    6.00000  14.3%  13.8  125s
 406202  2846    6.00000   81   19    7.00000    6.00000  14.3%  13.9  130s
 423544  2586    6.00000  117   21    7.00000    6.00000  14.3%  13.9  135s
 440110  2485 infeasible   98         7.00000    6.00000  14.3%  13.9  140s
 456044  2340    6.00000  118   22    7.00000    6.00000  14.3%  13.9  145s
 471729  1752 infeasible  107         7.00000    6.00000  14.3%  14.0  150s
 486333  1164 infeasible  110         7.00000    6.00000  14.3%  14.1  155s
 502356   699 infeasible   83         7.00000    6.00000  14.3%  14.1  160s
 517374   342 infeasible   87         7.00000    6.00000  14.3%  14.1  165s

Cutting planes:
  Gomory: 4
  Cover: 1
  MIR: 17
  StrongCG: 1
  Flow cover: 76
  Inf proof: 28
  Zero half: 5

Explored 524462 nodes (7431759 simplex iterations) in 167.50 seconds
Thread count was 4 (of 4 available processors)

Solution count 8: 7 8 9 ... 15

Optimal solution found (tolerance 1.00e-04)
Best objective 7.000000000000e+00, best bound 7.000000000000e+00, gap 0.0000%
